
n_res = 4;
rcap = [44, 52, 292, 289];
rtype = [1, 1, 2, 2];
n_tasks = 50;
modes =  [{1, 2, 3}, {4, 5, 6}, {7, 8, 9}, {10, 11, 12}, {13, 14, 15}, {16, 17, 18}, {19, 20, 21}, {22, 23, 24}, {25, 26, 27}, {28, 29, 30}, {31, 32, 33}, {34, 35, 36}, {37, 38, 39}, {40, 41, 42}, {43, 44, 45}, {46, 47, 48}, {49, 50, 51}, {52, 53, 54}, {55, 56, 57}, {58, 59, 60}, {61, 62, 63}, {64, 65, 66}, {67, 68, 69}, {70, 71, 72}, {73, 74, 75}, {76, 77, 78}, {79, 80, 81}, {82, 83, 84}, {85, 86, 87}, {88, 89, 90}, {91, 92, 93}, {94, 95, 96}, {97, 98, 99}, {100, 101, 102}, {103, 104, 105}, {106, 107, 108}, {109, 110, 111}, {112, 113, 114}, {115, 116, 117}, {118, 119, 120}, {121, 122, 123}, {124, 125, 126}, {127, 128, 129}, {130, 131, 132}, {133, 134, 135}, {136, 137, 138}, {139, 140, 141}, {142, 143, 144}, {145, 146, 147}, {148, 149, 150}];
succ =  [{23, 10, 3}, {33, 27, 25, 10}, {50, 33, 29, 26, 25, 20, 16}, {50, 36, 33, 30, 25, 24, 19}, {50, 33, 31, 27, 25, 24, 23}, {27, 26, 24, 22, 16}, {33, 28, 27, 23, 22, 21}, {33, 21, 20, 18}, {49, 33, 30, 29, 26, 24, 20}, {31, 30, 29, 24, 21, 20}, {50, 48, 30, 25, 21, 20}, {50, 48, 34, 30, 27, 24}, {48, 31, 30, 28, 26, 25}, {49, 48, 34, 27, 26, 24}, {50, 49, 48, 47, 34, 32, 30, 27}, {48, 36, 34, 31, 30, 28}, {50, 36, 33, 24}, {49, 48, 31, 30, 28}, {49, 48, 38, 34, 31, 29}, {38, 36, 35, 34, 28}, {49, 46, 44, 35, 26}, {49, 47, 46, 38, 35, 34, 32}, {49, 48, 47, 34, 29}, {44, 38, 35, 28}, {49, 46, 42, 38, 35, 34}, {47, 38, 37, 36, 32}, {43, 36, 29}, {47, 46, 37, 32}, {46, 45, 44, 42, 40, 35}, {44, 43, 40, 38, 35}, {44, 42, 37, 35}, {45, 43, 42, 41, 40, 39}, {48, 43, 42, 35}, {44, 43, 39, 37}, {41, 39}, {42, 39}, {40}, {39}, {}, {}, {}, {}, {}, {}, {}, {}, {}, {}, {}, {}];
n_opt = 150;
dur = [2, 3, 9, 4, 5, 10, 3, 4, 5, 3, 8, 10, 2, 5, 7, 1, 5, 9, 1, 3, 5, 2, 7, 8, 3, 5, 7, 3, 5, 8, 3, 5, 6, 2, 4, 9, 8, 9, 10, 6, 7, 8, 4, 5, 8, 6, 8, 9, 2, 3, 9, 4, 8, 9, 1, 5, 10, 1, 6, 7, 2, 3, 9, 1, 6, 7, 4, 6, 10, 1, 2, 3, 2, 6, 7, 1, 3, 6, 2, 4, 9, 2, 4, 7, 1, 3, 4, 2, 3, 7, 1, 4, 6, 1, 2, 10, 1, 4, 9, 1, 2, 4, 4, 7, 9, 1, 3, 8, 5, 8, 9, 4, 7, 10, 6, 7, 8, 2, 3, 6, 6, 9, 10, 1, 3, 8, 3, 5, 6, 3, 5, 6, 1, 3, 10, 4, 7, 10, 1, 6, 8, 3, 5, 9, 3, 8, 10, 2, 3, 4];
rreq = [|6, 5, 3, 7, 7, 7, 10, 10, 10, 3, 2, 2, 5, 5, 5, 8, 7, 4, 2, 2, 2, 3, 1, 1, 4, 4, 4, 8, 8, 8, 8, 4, 4, 7, 6, 3, 8, 8, 8, 3, 3, 3, 7, 6, 3, 9, 7, 7, 8, 6, 5, 6, 5, 4, 7, 6, 4, 8, 6, 4, 10, 7, 4, 9, 9, 8, 6, 5, 2, 7, 5, 5, 10, 6, 2, 10, 10, 10, 3, 1, 1, 6, 3, 2, 7, 6, 6, 6, 5, 4, 7, 5, 3, 7, 3, 2, 7, 5, 5, 10, 8, 7, 9, 8, 7, 6, 3, 3, 4, 3, 2, 4, 3, 2, 8, 5, 4, 9, 8, 7, 7, 7, 6, 10, 7, 6, 9, 8, 7, 4, 4, 3, 6, 6, 4, 4, 3, 3, 7, 7, 5, 4, 4, 4, 8, 6, 2, 8, 6, 4
 |8, 8, 8, 7, 7, 4, 9, 8, 7, 9, 7, 7, 5, 3, 3, 4, 3, 2, 4, 2, 1, 10, 6, 5, 7, 5, 4, 7, 4, 3, 7, 4, 2, 4, 3, 2, 8, 7, 7, 7, 7, 3, 10, 9, 8, 10, 7, 4, 5, 4, 3, 9, 8, 7, 7, 6, 4, 8, 7, 7, 9, 6, 6, 8, 7, 4, 4, 4, 3, 6, 4, 3, 6, 3, 1, 7, 7, 6, 7, 5, 5, 6, 5, 3, 8, 8, 7, 7, 7, 6, 6, 5, 5, 7, 6, 4, 9, 4, 1, 9, 7, 6, 8, 5, 5, 6, 4, 4, 8, 7, 7, 5, 4, 2, 9, 7, 6, 6, 5, 4, 7, 5, 3, 7, 7, 6, 9, 8, 8, 1, 1, 1, 4, 3, 3, 8, 5, 4, 8, 6, 4, 9, 8, 7, 5, 4, 2, 9, 7, 7
 |6, 5, 3, 5, 5, 5, 6, 6, 5, 1, 1, 1, 7, 7, 3, 9, 9, 8, 7, 5, 3, 6, 4, 3, 5, 4, 3, 8, 4, 1, 7, 6, 6, 6, 6, 4, 2, 2, 1, 3, 3, 3, 6, 6, 5, 8, 7, 5, 7, 6, 3, 6, 5, 4, 10, 6, 5, 8, 8, 7, 6, 5, 2, 10, 9, 9, 7, 6, 4, 4, 2, 1, 9, 8, 7, 8, 6, 6, 7, 4, 3, 10, 10, 10, 7, 7, 6, 5, 5, 5, 6, 5, 3, 6, 2, 2, 8, 6, 3, 7, 6, 6, 9, 8, 7, 6, 4, 2, 7, 7, 7, 7, 4, 2, 6, 5, 5, 6, 5, 4, 9, 7, 4, 5, 4, 4, 1, 1, 1, 5, 4, 3, 6, 5, 4, 8, 6, 3, 6, 3, 3, 3, 3, 3, 7, 7, 1, 8, 6, 4
 |1, 1, 1, 8, 7, 6, 5, 5, 3, 7, 4, 3, 10, 8, 8, 8, 3, 3, 6, 6, 2, 5, 4, 3, 8, 7, 6, 8, 7, 7, 7, 7, 7, 7, 3, 1, 3, 2, 2, 4, 2, 2, 6, 5, 5, 9, 5, 4, 5, 5, 3, 7, 5, 4, 2, 2, 2, 8, 5, 4, 10, 8, 6, 1, 1, 1, 5, 3, 3, 4, 3, 2, 6, 6, 5, 4, 4, 4, 10, 6, 6, 8, 7, 4, 5, 2, 1, 9, 7, 7, 6, 6, 5, 8, 7, 6, 4, 3, 3, 8, 6, 6, 9, 5, 4, 5, 4, 4, 8, 8, 5, 6, 6, 5, 4, 4, 4, 6, 4, 2, 5, 5, 5, 4, 2, 2, 3, 1, 1, 8, 7, 7, 10, 10, 10, 5, 5, 5, 8, 6, 6, 8, 6, 2, 10, 9, 9, 5, 4, 4|];